70 0
89 72
82 134
20 56
110 60
51 137
67 125
58 102
112 93
111 121
102 141
31 52
8 85
22 147
46 26
122 21
47 123
37 103
13 43
97 88
122 92
125 57
36 117
14 122
70 83
57 118
50 68
123 45
134 78
138 27
82 89
98 36
106 30
145 63
88 113
103 99
42 52
135 65
132 45
5 36
20 77
51 40
5 144
30 35
77 102
32 65
25 122
24 90
98 58
116 137
70 142